0 4395
2401 4272
4802 4165
7203 4082
9604 4014
12005 3962
14406 3904
16807 3858
19208 3824
21609 3789
24010 3775
26411 3748
28812 3730
31213 3708
33614 3684
36015 3665
38416 3653
40817 3632
43218 3630
45619 3620
48020 3611
50421 3598
52822 3584
55223 3577
57624 3563
60025 3549
62426 3541
64827 3538
67228 3535
69629 3525
72030 3511
74431 3507
76832 3506
